\ Model SubmodelKnapsack
\ LP format - for model browsing. Use MPS format to capture full model detail.
Minimize
  - 0.00101010101010101 s_pw_(0,_'C1',_'P1',_'CPU1')
   - 0.00298405661181687 s_pw_(1,_'C1',_'P1',_'CPU1')
   - 0.00193554609958396 s_pw_(2,_'C1',_'P1',_'CPU1')
   - 0.00171378720274619 s_ps_(1,_2,_'C1',_'P1',_'CPU1')
   + 0.00169664933071873 s_ps_(2,_1,_'C1',_'P1',_'CPU1')
   + 0.00169664933071873 s_ps_(2,_2,_'C1',_'P1',_'CPU1')
   + 0.0029542160456987 a_pw_p_(0,_'C1',_'P1',_'CPU1')
   + 0.00191619063858812 a_pw_p_(1,_'C1',_'P1',_'CPU1')
   + 0.00191619063858812 a_pw_p_(2,_'C1',_'P1',_'CPU1')
Subject To
 uu_hat_(1,_'PPE1'): a_uu_p_(1,_'PPE1')
   - 3 a_ps_p_(1,_0,_'C1',_'P1',_'CPU1')
   - 3 a_ps_p_(1,_1,_'C1',_'P1',_'CPU1')
   - 3 a_ps_p_(1,_2,_'C1',_'P1',_'CPU1') = 0
 uu_hat_(2,_'PPE1'): a_uu_p_(2,_'PPE1')
   - 3 a_ps_p_(2,_0,_'C1',_'P1',_'CPU1')
   - 3 a_ps_p_(2,_1,_'C1',_'P1',_'CPU1')
   - 3 a_ps_p_(2,_2,_'C1',_'P1',_'CPU1') = 0
 pw_hat_(0,_'C1',_'P1',_'CPU1'): - s_pw_(0,_'C1',_'P1',_'CPU1')
   + a_sc_(1,_0,_'C1',_'P1',_'CPU1') + a_sc_(2,_0,_'C1',_'P1',_'CPU1')
   + a_pw_p_(0,_'C1',_'P1',_'CPU1') = 0
 pw_hat_(1,_'C1',_'P1',_'CPU1'): - s_pw_(1,_'C1',_'P1',_'CPU1')
   + a_sc_(1,_1,_'C1',_'P1',_'CPU1') + a_sc_(2,_1,_'C1',_'P1',_'CPU1')
   + a_pw_p_(1,_'C1',_'P1',_'CPU1') = 0
 pw_hat_(2,_'C1',_'P1',_'CPU1'): - s_pw_(2,_'C1',_'P1',_'CPU1')
   + a_sc_(1,_2,_'C1',_'P1',_'CPU1') + a_sc_(2,_2,_'C1',_'P1',_'CPU1')
   + a_pw_p_(2,_'C1',_'P1',_'CPU1') = 0
 ps_hat_(1,_0,_'C1',_'P1',_'CPU1'): - s_ps_(1,_0,_'C1',_'P1',_'CPU1')
   - a_sc_(1,_0,_'C1',_'P1',_'CPU1') + a_rsc_(1,_2,_0,_'C1',_'P1',_'CPU1')
   - a_rsc_(2,_1,_0,_'C1',_'P1',_'CPU1')
   + a_ps_p_(1,_0,_'C1',_'P1',_'CPU1') = 0
 ps_hat_(1,_1,_'C1',_'P1',_'CPU1'): - s_ps_(1,_1,_'C1',_'P1',_'CPU1')
   - a_sc_(1,_1,_'C1',_'P1',_'CPU1') + a_rsc_(1,_2,_1,_'C1',_'P1',_'CPU1')
   - a_rsc_(2,_1,_1,_'C1',_'P1',_'CPU1')
   + a_ps_p_(1,_1,_'C1',_'P1',_'CPU1') = 0
 ps_hat_(1,_2,_'C1',_'P1',_'CPU1'): - s_ps_(1,_2,_'C1',_'P1',_'CPU1')
   - a_sc_(1,_2,_'C1',_'P1',_'CPU1') + a_rsc_(1,_2,_2,_'C1',_'P1',_'CPU1')
   - a_rsc_(2,_1,_2,_'C1',_'P1',_'CPU1')
   + a_ps_p_(1,_2,_'C1',_'P1',_'CPU1') = 0
 ps_hat_(2,_0,_'C1',_'P1',_'CPU1'): - s_ps_(2,_0,_'C1',_'P1',_'CPU1')
   - a_sc_(2,_0,_'C1',_'P1',_'CPU1') - a_rsc_(1,_2,_0,_'C1',_'P1',_'CPU1')
   + a_rsc_(2,_1,_0,_'C1',_'P1',_'CPU1')
   + a_ps_p_(2,_0,_'C1',_'P1',_'CPU1') = 0
 ps_hat_(2,_1,_'C1',_'P1',_'CPU1'): - s_ps_(2,_1,_'C1',_'P1',_'CPU1')
   - a_sc_(2,_1,_'C1',_'P1',_'CPU1') - a_rsc_(1,_2,_1,_'C1',_'P1',_'CPU1')
   + a_rsc_(2,_1,_1,_'C1',_'P1',_'CPU1')
   + a_ps_p_(2,_1,_'C1',_'P1',_'CPU1') = 0
 ps_hat_(2,_2,_'C1',_'P1',_'CPU1'): - s_ps_(2,_2,_'C1',_'P1',_'CPU1')
   - a_sc_(2,_2,_'C1',_'P1',_'CPU1') - a_rsc_(1,_2,_2,_'C1',_'P1',_'CPU1')
   + a_rsc_(2,_1,_2,_'C1',_'P1',_'CPU1')
   + a_ps_p_(2,_2,_'C1',_'P1',_'CPU1') = 0
 R11: a_uv_(1,_'PPE1') - 1000 a_uvb_(1,_'PPE1') <= 0
 R12: s_ul_('PPE1',) + a_uv_(1,_'PPE1') - a_uu_p_(1,_'PPE1')
   + 1000 a_uvb_(1,_'PPE1') <= 970
 R13: a_uv_(2,_'PPE1') - 1000 a_uvb_(2,_'PPE1') <= 0
 R14: a_uv_(2,_'PPE1') - a_uu_p_(2,_'PPE1') + 1000 a_uvb_(2,_'PPE1')
   <= 970
 resource_constraint_(1,_'PPE1'): - a_uv_(1,_'PPE1') + a_uu_p_(1,_'PPE1')
   <= 30
 resource_constraint_(2,_'PPE1'): - a_uv_(2,_'PPE1') + a_uu_p_(2,_'PPE1')
   <= 30
 resc_bound_(1,_1,_0,_'C1',_'P1',_'CPU1'):
   a_rsc_(1,_1,_0,_'C1',_'P1',_'CPU1') = 0
 resc_bound_(1,_1,_1,_'C1',_'P1',_'CPU1'):
   a_rsc_(1,_1,_1,_'C1',_'P1',_'CPU1') = 0
 resc_bound_(1,_1,_2,_'C1',_'P1',_'CPU1'):
   a_rsc_(1,_1,_2,_'C1',_'P1',_'CPU1') = 0
 resc_bound_(2,_2,_0,_'C1',_'P1',_'CPU1'):
   a_rsc_(2,_2,_0,_'C1',_'P1',_'CPU1') = 0
 resc_bound_(2,_2,_1,_'C1',_'P1',_'CPU1'):
   a_rsc_(2,_2,_1,_'C1',_'P1',_'CPU1') = 0
 resc_bound_(2,_2,_2,_'C1',_'P1',_'CPU1'):
   a_rsc_(2,_2,_2,_'C1',_'P1',_'CPU1') = 0
 consistent_resc_(1,_0,_'C1',_'P1',_'CPU1'):
   s_ps_(1,_0,_'C1',_'P1',_'CPU1') - a_rsc_(1,_1,_0,_'C1',_'P1',_'CPU1')
   - a_rsc_(1,_2,_0,_'C1',_'P1',_'CPU1') >= 0
 consistent_resc_(1,_1,_'C1',_'P1',_'CPU1'):
   s_ps_(1,_1,_'C1',_'P1',_'CPU1') - a_rsc_(1,_1,_1,_'C1',_'P1',_'CPU1')
   - a_rsc_(1,_2,_1,_'C1',_'P1',_'CPU1') >= 0
 consistent_resc_(1,_2,_'C1',_'P1',_'CPU1'):
   s_ps_(1,_2,_'C1',_'P1',_'CPU1') - a_rsc_(1,_1,_2,_'C1',_'P1',_'CPU1')
   - a_rsc_(1,_2,_2,_'C1',_'P1',_'CPU1') >= 0
 consistent_resc_(2,_0,_'C1',_'P1',_'CPU1'):
   s_ps_(2,_0,_'C1',_'P1',_'CPU1') - a_rsc_(2,_1,_0,_'C1',_'P1',_'CPU1')
   - a_rsc_(2,_2,_0,_'C1',_'P1',_'CPU1') >= 0
 consistent_resc_(2,_1,_'C1',_'P1',_'CPU1'):
   s_ps_(2,_1,_'C1',_'P1',_'CPU1') - a_rsc_(2,_1,_1,_'C1',_'P1',_'CPU1')
   - a_rsc_(2,_2,_1,_'C1',_'P1',_'CPU1') >= 0
 consistent_resc_(2,_2,_'C1',_'P1',_'CPU1'):
   s_ps_(2,_2,_'C1',_'P1',_'CPU1') - a_rsc_(2,_1,_2,_'C1',_'P1',_'CPU1')
   - a_rsc_(2,_2,_2,_'C1',_'P1',_'CPU1') >= 0
 consistent_sch_(0,_'C1',_'P1',_'CPU1'): s_pw_(0,_'C1',_'P1',_'CPU1')
   - a_sc_(1,_0,_'C1',_'P1',_'CPU1') - a_sc_(2,_0,_'C1',_'P1',_'CPU1')
   >= 0
 consistent_sch_(1,_'C1',_'P1',_'CPU1'): s_pw_(1,_'C1',_'P1',_'CPU1')
   - a_sc_(1,_1,_'C1',_'P1',_'CPU1') - a_sc_(2,_1,_'C1',_'P1',_'CPU1')
   >= 0
 consistent_sch_(2,_'C1',_'P1',_'CPU1'): s_pw_(2,_'C1',_'P1',_'CPU1')
   - a_sc_(1,_2,_'C1',_'P1',_'CPU1') - a_sc_(2,_2,_'C1',_'P1',_'CPU1')
   >= 0
Bounds
 s_ul_('PPE1',) <= 60
 s_pw_(0,_'C1',_'P1',_'CPU1') <= 20
 s_pw_(1,_'C1',_'P1',_'CPU1') <= 20
 s_pw_(2,_'C1',_'P1',_'CPU1') <= 20
 s_ps_(1,_0,_'C1',_'P1',_'CPU1') <= 10
 s_ps_(1,_1,_'C1',_'P1',_'CPU1') <= 10
 s_ps_(1,_2,_'C1',_'P1',_'CPU1') <= 10
 s_ps_(2,_0,_'C1',_'P1',_'CPU1') <= 10
 s_ps_(2,_1,_'C1',_'P1',_'CPU1') <= 10
 s_ps_(2,_2,_'C1',_'P1',_'CPU1') <= 10
Binaries
 a_uvb_(1,_'PPE1') a_uvb_(2,_'PPE1')
Generals
 s_pw_(0,_'C1',_'P1',_'CPU1') s_pw_(1,_'C1',_'P1',_'CPU1')
 s_pw_(2,_'C1',_'P1',_'CPU1') s_ps_(1,_0,_'C1',_'P1',_'CPU1')
 s_ps_(1,_1,_'C1',_'P1',_'CPU1') s_ps_(1,_2,_'C1',_'P1',_'CPU1')
 s_ps_(2,_0,_'C1',_'P1',_'CPU1') s_ps_(2,_1,_'C1',_'P1',_'CPU1')
 s_ps_(2,_2,_'C1',_'P1',_'CPU1') a_sc_(1,_0,_'C1',_'P1',_'CPU1')
 a_sc_(1,_1,_'C1',_'P1',_'CPU1') a_sc_(1,_2,_'C1',_'P1',_'CPU1')
 a_sc_(2,_0,_'C1',_'P1',_'CPU1') a_sc_(2,_1,_'C1',_'P1',_'CPU1')
 a_sc_(2,_2,_'C1',_'P1',_'CPU1') a_rsc_(1,_1,_0,_'C1',_'P1',_'CPU1')
 a_rsc_(1,_1,_1,_'C1',_'P1',_'CPU1') a_rsc_(1,_1,_2,_'C1',_'P1',_'CPU1')
 a_rsc_(1,_2,_0,_'C1',_'P1',_'CPU1') a_rsc_(1,_2,_1,_'C1',_'P1',_'CPU1')
 a_rsc_(1,_2,_2,_'C1',_'P1',_'CPU1') a_rsc_(2,_1,_0,_'C1',_'P1',_'CPU1')
 a_rsc_(2,_1,_1,_'C1',_'P1',_'CPU1') a_rsc_(2,_1,_2,_'C1',_'P1',_'CPU1')
 a_rsc_(2,_2,_0,_'C1',_'P1',_'CPU1') a_rsc_(2,_2,_1,_'C1',_'P1',_'CPU1')
 a_rsc_(2,_2,_2,_'C1',_'P1',_'CPU1') a_pw_p_(0,_'C1',_'P1',_'CPU1')
 a_pw_p_(1,_'C1',_'P1',_'CPU1') a_pw_p_(2,_'C1',_'P1',_'CPU1')
 a_ps_p_(1,_0,_'C1',_'P1',_'CPU1') a_ps_p_(1,_1,_'C1',_'P1',_'CPU1')
 a_ps_p_(1,_2,_'C1',_'P1',_'CPU1') a_ps_p_(2,_0,_'C1',_'P1',_'CPU1')
 a_ps_p_(2,_1,_'C1',_'P1',_'CPU1') a_ps_p_(2,_2,_'C1',_'P1',_'CPU1')
End
